qbf_easy_train/easy_5954_UNSAT.qdimacs
p cnf 45 140
a 24 33 17 0
e 1 2 3 4 5 6 7 8 9 10 11 12 13 14 15 16 18 19 20 21 22 23 25 26 27 28 29 30 31 32 34 35 36 37 38 39 40 41 42 43 44 45 0
-4 -2 0
-4 3 0
2 -3 4 0
4 -5 -6 0
-4 5 -6 0
4 5 6 0
-4 -5 6 0
-1 6 -7 0
1 -6 -7 0
-1 -6 7 0
1 6 7 0
-7 -6 -8 0
7 6 -8 0
-7 6 8 0
7 -6 8 0
10 9 0
10 -3 0
-9 3 -10 0
-11 -10 0
-11 -6 0
10 6 11 0
-12 -8 0
-12 -11 0
8 11 12 0
3 -9 -13 0
-3 9 -13 0
3 9 13 0
-3 -9 13 0
15 -13 0
15 -14 0
13 14 -15 0
16 15 0
16 -4 0
-15 4 -16 0
17 16 0
17 1 0
-16 -1 -17 0
10 14 -18 0
-10 -14 -18 0
10 -14 18 0
-10 14 18 0
-19 13 0
-19 -18 0
-13 18 19 0
20 -15 0
20 19 0
15 -19 -20 0
22 -6 0
22 21 0
6 -21 -22 0
-21 -10 -23 0
21 10 -23 0
-21 10 23 0
21 -10 23 0
-10 2 -24 0
10 -2 -24 0
-10 -2 24 0
10 2 24 0
-1 -10 -25 0
1 10 -25 0
-1 10 25 0
1 -10 25 0
26 -5 0
26 -25 0
5 25 -26 0
27 26 0
27 25 0
-26 -25 -27 0
-24 27 -28 0
24 -27 -28 0
-24 -27 28 0
24 27 28 0
-29 -23 0
-29 28 0
23 -28 29 0
-30 -22 0
-30 29 0
22 -29 30 0
20 -30 -31 0
-20 30 -31 0
20 30 31 0
-20 -30 31 0
-17 -31 -32 0
17 31 -32 0
-17 31 32 0
17 -31 32 0
-14 10 -33 0
14 -10 -33 0
-14 -10 33 0
14 10 33 0
-34 -32 0
-34 33 0
32 -33 34 0
35 12 0
35 -34 0
-12 34 -35 0
-36 2 0
-36 -1 0
-2 1 36 0
18 -15 -37 0
-18 15 -37 0
18 15 37 0
-18 -15 37 0
-38 -21 -39 0
38 21 -39 0
-38 21 39 0
38 -21 39 0
-37 -39 -40 0
37 39 -40 0
-37 39 40 0
37 -39 40 0
41 36 0
41 40 0
-36 -40 -41 0
42 1 0
42 13 0
-1 -13 -42 0
43 -42 0
43 26 0
42 -26 -43 0
44 -41 0
44 -43 0
41 43 -44 0
-45 -35 0
-45 44 0
35 -44 45 0
-15 37 -22 -45 -35 39 -44 0
-17 42 -8 -38 0
-11 5 29 30 45 -7 0
18 -2 21 0
12 30 -10 0
2 43 34 14 6 33 -4 15 0
-24 23 36 0
-43 40 -31 32 20 18 13 0
-30 36 28 14 0
-44 26 -23 3 -36 0
-30 25 45 8 0
-33 41 20 0
-20 44 -5 -19 -10 0
45 0
