sat_easy_train/easy_5954_UNSAT.dimacs
p cnf 132 447
4 2 0
4 -3 0
-2 3 -4 0
-5 -4 0
-5 -2 0
4 2 5 0
5 -6 -7 0
-5 6 -7 0
5 6 7 0
-5 -6 7 0
8 1 0
8 7 0
-1 -7 -8 0
-11 -3 0
-11 10 0
3 -10 11 0
-9 -11 -12 0
9 11 -12 0
-9 11 12 0
9 -11 12 0
8 12 -13 0
-8 -12 -13 0
8 -12 13 0
-8 12 13 0
-16 14 0
-16 15 0
-14 -15 16 0
17 -6 0
17 -16 0
6 16 -17 0
-14 -19 -20 0
14 19 -20 0
-14 19 20 0
14 -19 20 0
1 -20 -21 0
-1 20 -21 0
1 20 21 0
-1 -20 21 0
22 -21 0
22 -3 0
21 3 -22 0
15 -23 -24 0
-15 23 -24 0
15 23 24 0
-15 -23 24 0
25 -24 0
25 -1 0
24 1 -25 0
-26 -22 0
-26 -25 0
22 25 26 0
27 18 0
27 -26 0
-18 26 -27 0
17 27 -28 0
-17 -27 -28 0
17 -27 28 0
-17 27 28 0
15 24 -29 0
-15 -24 -29 0
15 -24 29 0
-15 24 29 0
29 23 -30 0
-29 -23 -30 0
29 -23 30 0
-29 23 30 0
31 32 0
-31 32 0
33 -2 0
33 32 0
2 -32 -33 0
34 -30 0
34 -33 0
30 33 -34 0
35 -34 0
35 21 0
34 -21 -35 0
36 -1 0
36 26 0
1 -26 -36 0
37 36 0
37 17 0
-36 -17 -37 0
-38 -35 0
-38 37 0
35 -37 38 0
-39 28 0
-39 -38 0
-28 38 39 0
-40 13 0
-40 -39 0
-13 39 40 0
-42 24 0
-42 -41 0
-24 41 42 0
-43 -40 0
-43 -42 0
40 42 43 0
-44 -20 0
-44 3 0
20 -3 44 0
-45 -44 0
-45 2 0
44 -2 45 0
46 -44 0
46 32 0
44 -32 -46 0
-6 -44 -47 0
6 44 -47 0
-6 44 47 0
6 -44 47 0
-49 -48 0
-49 -10 0
48 10 49 0
-50 47 0
-50 -49 0
-47 49 50 0
19 50 -51 0
-19 -50 -51 0
19 -50 51 0
-19 50 51 0
46 51 -52 0
-46 -51 -52 0
46 -51 52 0
-46 51 52 0
53 45 0
53 52 0
-45 -52 -53 0
-54 -1 0
-54 -31 0
1 31 54 0
-19 -54 -55 0
19 54 -55 0
-19 54 55 0
19 -54 55 0
-56 53 0
-56 -55 0
-53 55 56 0
-57 -18 0
-57 4 0
18 -4 57 0
-56 -57 -58 0
56 57 -58 0
-56 57 58 0
56 -57 58 0
-59 10 0
-59 10 0
-10 59 0
10 20 -61 0
-10 -20 -61 0
10 -20 61 0
-10 20 61 0
-60 61 -62 0
60 -61 -62 0
-60 -61 62 0
60 61 62 0
-59 62 -63 0
59 -62 -63 0
-59 -62 63 0
59 62 63 0
64 63 0
64 62 0
-63 -62 -64 0
54 1 -65 0
-54 -1 -65 0
54 -1 65 0
-54 1 65 0
-64 65 -66 0
64 -65 -66 0
-64 -65 66 0
64 65 66 0
17 44 -67 0
-17 -44 -67 0
17 -44 67 0
-17 44 67 0
-68 67 0
-68 24 0
-67 -24 68 0
-66 -68 -69 0
66 68 -69 0
-66 68 69 0
66 -68 69 0
-58 -69 -70 0
58 69 -70 0
-58 69 70 0
58 -69 70 0
-71 -43 0
-71 70 0
43 -70 71 0
31 -44 -72 0
-31 44 -72 0
31 44 72 0
-31 -44 72 0
-73 65 0
-73 25 0
-65 -25 73 0
74 73 0
74 44 0
-73 -44 -74 0
62 74 -75 0
-62 -74 -75 0
62 -74 75 0
-62 74 75 0
-76 51 0
-76 75 0
-51 -75 76 0
77 31 0
77 22 0
-31 -22 -77 0
76 -77 -78 0
-76 77 -78 0
76 77 78 0
-76 -77 78 0
-79 72 0
-79 78 0
-72 -78 79 0
-80 -60 0
-80 -29 0
60 29 80 0
-81 79 0
-81 -80 0
-79 80 81 0
48 -9 -82 0
-48 9 -82 0
48 9 82 0
-48 -9 82 0
-83 82 0
-83 10 0
-82 -10 83 0
84 -83 0
84 -11 0
83 11 -84 0
85 -48 0
85 84 0
48 -84 -85 0
86 -18 0
86 -62 0
18 62 -86 0
3 86 -87 0
-3 -86 -87 0
3 -86 87 0
-3 86 87 0
-88 -62 0
-88 65 0
62 -65 88 0
88 21 -89 0
-88 -21 -89 0
88 -21 89 0
-88 21 89 0
87 89 -90 0
-87 -89 -90 0
87 -89 90 0
-87 89 90 0
85 90 -91 0
-85 -90 -91 0
85 -90 91 0
-85 90 91 0
-92 31 0
-92 -4 0
-31 4 92 0
93 -91 0
93 92 0
91 -92 -93 0
-94 -24 0
-94 -46 0
24 46 94 0
75 -50 -95 0
-75 50 -95 0
75 50 95 0
-75 -50 95 0
74 95 -96 0
-74 -95 -96 0
74 -95 96 0
-74 95 96 0
-94 -96 -97 0
94 96 -97 0
-94 96 97 0
94 -96 97 0
98 -93 0
98 97 0
93 -97 -98 0
99 -81 0
99 -98 0
81 98 -99 0
-101 -29 0
-101 -100 0
29 100 101 0
-102 -47 0
-102 -24 0
47 24 102 0
103 -102 0
103 21 0
102 -21 -103 0
104 -103 0
104 -18 0
103 18 -104 0
-105 101 0
-105 -104 0
-101 104 105 0
41 -61 -106 0
-41 61 -106 0
41 61 106 0
-41 -61 106 0
-107 106 0
-107 -75 0
-106 75 107 0
108 -105 0
108 -107 0
105 107 -108 0
-109 99 0
-109 -108 0
-99 108 109 0
16 -23 -110 0
-16 23 -110 0
16 23 110 0
-16 -23 110 0
-111 -110 0
-111 47 0
110 -47 111 0
-112 -111 0
-112 18 0
111 -18 112 0
-113 -112 0
-113 -60 0
112 60 113 0
-114 10 0
-114 -23 0
-10 23 114 0
-115 113 0
-115 -114 0
-113 114 115 0
-116 -65 0
-116 22 0
65 -22 116 0
117 -115 0
117 -116 0
115 116 -117 0
-118 3 0
-118 1 0
-3 -1 118 0
119 118 0
119 102 0
-118 -102 -119 0
120 -9 0
120 119 0
9 -119 -120 0
121 63 0
121 -2 0
-63 2 -121 0
44 121 -122 0
-44 -121 -122 0
44 -121 122 0
-44 121 122 0
21 -82 -123 0
-21 82 -123 0
21 82 123 0
-21 -82 123 0
122 -123 -124 0
-122 123 -124 0
122 123 124 0
-122 -123 124 0
-125 -120 0
-125 -124 0
120 124 125 0
117 125 -126 0
-117 -125 -126 0
117 -125 126 0
-117 125 126 0
21 24 -127 0
-21 -24 -127 0
21 -24 127 0
-21 24 127 0
-128 -16 0
-128 -11 0
16 11 128 0
129 -127 0
129 128 0
127 -128 -129 0
130 -126 0
130 -129 0
126 129 -130 0
109 130 -131 0
-109 -130 -131 0
109 -130 131 0
-109 130 131 0
-132 -71 0
-132 -131 0
71 131 132 0
-96 -130 94 -122 64 62 0
116 41 18 -27 0
36 -116 92 20 -102 46 0
-109 73 -70 0
41 18 52 86 0
31 -59 32 0
100 11 -83 -72 -70 0
-52 -47 0
-13 -94 103 -115 0
-117 -64 -54 -115 0
108 9 -65 0
-98 -119 26 125 -31 0
51 -115 66 0
-18 -69 99 1 40 0
87 21 122 0
81 -37 122 109 -84 99 0
-53 -65 25 58 23 0
-48 -28 32 -93 10 0
109 3 -33 -23 0
83 65 -63 80 39 -117 0
-58 -93 0
-99 -15 0
-55 31 59 65 -102 0
105 -99 -29 0
-124 -17 -7 -90 116 0
-82 -123 0
-14 -19 6 98 0
24 -84 13 0
-29 -94 -19 0
65 -7 22 98 121 -118 0
-46 -96 105 100 0
-5 24 -92 -69 -4 0
45 69 0
-71 -48 -123 43 20 0
-21 104 -28 -73 88 0
96 71 -34 0
-109 127 -53 116 0
100 -23 -74 0
-49 -47 -33 64 -129 0
-34 -35 99 22 72 0
-117 62 46 0
61 -125 18 0
14 43 -93 112 -11 0
97 -126 71 27 -77 121 0
38 51 0
-103 -128 0
-54 114 51 -68 -44 -20 0
59 -67 104 105 114 0
-76 -94 0
90 -118 -6 128 -50 -52 0
-71 32 -111 107 52 0
-82 95 109 0
53 74 83 0
-15 26 76 0
-26 73 -59 -21 39 -42 0
68 44 -106 78 -55 0
1 106 76 27 0
-37 -58 -101 -51 0
132 0
